p cnf 776 2376
c ind 661 648 619 636 602 660 755 659 675 593 0
c ind 595 603 604 605 606 608 609 612 613 621 0
c ind 625 626 627 628 629 630 631 638 639 640 0
c ind 641 642 644 653 654 655 656 594 596 597 0
c ind 598 599 607 610 611 614 615 616 620 622 0
c ind 623 624 632 633 637 643 645 649 650 651 0
c ind 652 709 759 773 721 727 761 767 697 717 0
c ind 729 665 765 667 774 669 713 719 663 769 0
c ind 771 723 763 671 673 707 711 725 731 733 0
c ind 757 705 715 751 687 695 735 681 693 699 0
c ind 657 658 679 683 677 685 689 701 703 745 0
c ind 747 749 753 691 646 647 739 743 737 634 0
c ind 635 741 600 601 617 618 760 698 752 676 0
c ind 702 744 754 680 696 704 762 682 686 692 0
c ind 700 742 750 768 772 678 688 672 674 684 0
c ind 694 734 736 746 766 712 738 740 668 710 0
c ind 728 664 748 690 770 706 756 724 726 670 0
c ind 714 662 722 758 764 718 720 666 732 708 0
c ind 730 716 1 0
c ret 529 530 531 532 533 534 535 536 537 538 0
c ret 539 540 541 542 543 544 545 546 547 548 0
c ret 549 550 551 552 553 554 555 556 557 558 0
c ret 559 560 561 562 563 564 565 566 567 568 0
c ret 569 570 571 572 573 574 575 576 577 578 0
c ret 579 580 581 582 583 584 585 586 587 588 0
c ret 589 590 591 592 0
2 -3 -94 -360 -418 0
-2 418 0
-2 3 0
-2 360 0
-2 94 0
3 4 9 13 -15 0
-3 15 0
-3 -13 0
-3 -4 0
-3 -9 0
4 6 -7 0
4 -5 6 -754 0
-4 -6 0
-4 5 7 0
-4 7 754 0
5 646 -647 0
5 -646 647 0
-5 -646 -647 0
-5 646 647 0
-5 6 -580 0
5 6 580 0
-5 -6 580 0
5 -6 -580 0
7 8 -648 755 0
7 -8 648 755 0
-7 -755 0
-7 -8 -648 0
-7 8 648 0
8 581 -756 0
8 -581 756 0
-8 -581 -756 0
-8 581 756 0
9 -10 675 0
9 11 602 675 0
-9 -675 0
-9 10 -602 0
-9 10 -11 0
10 538 676 0
-10 -538 0
-10 -676 0
11 -12 -537 0
11 12 537 0
-11 -12 537 0
-11 12 -537 0
12 600 -601 0
12 -600 601 0
-12 -600 -601 0
-12 600 601 0
13 -14 755 0
6 13 648 755 0
-13 -755 0
-13 14 -648 0
-6 -13 14 0
14 581 756 0
-14 -581 0
-14 -756 0
15 -16 -53 -74 -84 0
-15 84 0
-15 16 0
-15 74 0
-15 53 0
16 -17 37 -39 -44 0
-16 44 0
-16 17 0
-16 39 0
-16 -37 0
17 -18 23 25 -27 0
-17 27 0
-17 -25 0
-17 18 0
-17 -23 0
18 19 22 0
18 19 -21 -624 0
18 19 21 624 0
-18 -19 0
-18 21 -22 -624 0
-18 -21 -22 624 0
19 -20 614 698 699 0
19 20 -614 698 699 0
-19 -698 0
-19 -20 -614 0
-19 -699 0
-19 20 614 0
20 550 -700 0
20 -550 700 0
-20 -550 -700 0
-20 550 700 0
21 559 -716 0
21 -559 716 0
-21 -559 -716 0
-21 559 716 0
22 714 715 0
-22 -714 0
-22 -715 0
23 -24 616 702 703 0
23 24 -616 702 703 0
-23 -702 0
-23 -24 -616 0
-23 -703 0
-23 24 616 0
24 552 -704 0
24 -552 704 0
-24 -552 -704 0
-24 552 704 0
25 -26 622 710 711 0
25 26 -622 710 711 0
-25 -710 0
-25 -26 -622 0
-25 -711 0
-25 26 622 0
26 557 -712 0
26 -557 712 0
-26 -557 -712 0
-26 557 712 0
27 -28 33 735 0
27 -28 33 35 0
-27 28 0
-27 -33 0
-27 -35 -735 0
28 29 32 0
28 29 -31 -637 0
28 29 31 637 0
-28 -29 0
-28 31 -32 -637 0
-28 -31 -32 637 0
29 -30 599 672 673 0
29 30 -599 672 673 0
-29 -672 0
-29 -30 -599 0
-29 -673 0
-29 30 599 0
30 536 -674 0
30 -536 674 0
-30 -536 -674 0
-30 536 674 0
31 571 -738 0
31 -571 738 0
-31 -571 -738 0
-31 571 738 0
32 736 737 0
-32 -736 0
-32 -737 0
33 -34 597 668 669 0
33 34 -597 668 669 0
-33 -668 0
-33 -34 -597 0
-33 -669 0
-33 34 597 0
34 534 -670 0
34 -534 670 0
-34 -534 -670 0
-34 534 670 0
35 -36 -569 0
35 36 569 0
-35 -36 569 0
-35 36 -569 0
36 634 -635 0
36 -634 635 0
-36 -634 -635 0
-36 634 635 0
37 -38 603 676 677 0
37 38 -603 676 677 0
-37 -676 0
-37 -38 -603 0
-37 -677 0
-37 38 603 0
38 539 -678 0
38 -539 678 0
-38 -539 -678 0
-38 539 678 0
39 40 43 0
39 40 -42 -620 0
39 40 42 620 0
-39 -40 0
-39 42 -43 -620 0
-39 -42 -43 620 0
40 -41 611 692 693 0
40 41 -611 692 693 0
-40 -692 0
-40 -41 -611 0
-40 -693 0
-40 41 611 0
41 547 -694 0
41 -547 694 0
-41 -547 -694 0
-41 547 694 0
42 555 -708 0
42 -555 708 0
-42 -555 -708 0
-42 555 708 0
43 706 707 0
-43 -706 0
-43 -707 0
44 -45 49 705 0
44 -45 49 51 0
-44 45 0
-44 -49 0
-44 -51 -705 0
6 45 47 0
45 46 47 0
-45 -47 0
-6 -45 -46 0
-8 46 -648 0
-46 648 0
8 -46 0
47 -48 623 712 713 0
47 48 -623 712 713 0
-47 -712 0
-47 -48 -623 0
-47 -713 0
-47 48 623 0
48 558 -714 0
48 -558 714 0
-48 -558 -714 0
-48 558 714 0
49 -50 610 690 691 0
49 50 -610 690 691 0
-49 -690 0
-49 -50 -610 0
-49 -691 0
-49 50 610 0
50 546 -692 0
50 -546 692 0
-50 -546 -692 0
-50 546 692 0
51 -52 -553 0
51 52 553 0
-51 -52 553 0
-51 52 -553 0
52 617 -618 0
52 -617 618 0
-52 -617 -618 0
-52 617 618 0
53 -54 -59 -64 -69 0
-53 69 0
-53 54 0
-53 64 0
-53 59 0
54 55 58 0
54 55 -57 -643 0
54 55 57 643 0
-54 -55 0
-54 57 -58 -643 0
-54 -57 -58 643 0
55 -56 615 700 701 0
55 56 -615 700 701 0
-55 -700 0
-55 -56 -615 0
-55 -701 0
-55 56 615 0
56 551 -702 0
56 -551 702 0
-56 -551 -702 0
-56 551 702 0
57 577 -750 0
57 -577 750 0
-57 -577 -750 0
-57 577 750 0
58 748 749 0
-58 -748 0
-58 -749 0
59 60 63 0
59 60 -62 -645 0
59 60 62 645 0
-59 -60 0
-59 62 -63 -645 0
-59 -62 -63 645 0
60 -61 598 670 671 0
60 61 -598 670 671 0
-60 -670 0
-60 -61 -598 0
-60 -671 0
-60 61 598 0
61 535 -672 0
61 -535 672 0
-61 -535 -672 0
-61 535 672 0
62 579 -754 0
62 -579 754 0
-62 -579 -754 0
-62 579 754 0
63 752 753 0
-63 -752 0
-63 -753 0
64 65 68 0
64 65 -67 -652 0
64 65 67 652 0
-64 -65 0
-64 67 -68 -652 0
-64 -67 -68 652 0
65 -66 651 760 761 0
65 66 -651 760 761 0
-65 -760 0
-65 -66 -651 0
-65 -761 0
-65 66 651 0
66 584 -762 0
66 -584 762 0
-66 -584 -762 0
-66 584 762 0
67 585 -764 0
67 -585 764 0
-67 -585 -764 0
-67 585 764 0
68 762 763 0
-68 -762 0
-68 -763 0
69 70 73 0
69 70 -72 -633 0
69 70 72 633 0
-69 -70 0
-69 72 -73 -633 0
-69 -72 -73 633 0
70 -71 650 758 759 0
70 71 -650 758 759 0
-70 -758 0
-70 -71 -650 0
-70 -759 0
-70 71 650 0
71 583 -760 0
71 -583 760 0
-71 -583 -760 0
-71 583 760 0
72 568 -734 0
72 -568 734 0
-72 -568 -734 0
-72 568 734 0
73 732 733 0
-73 -732 0
-73 -733 0
11 74 -75 80 0
74 -75 80 82 0
-74 75 0
-74 -80 0
-11 -74 -82 0
75 76 79 0
75 76 -78 -649 0
75 76 78 649 0
-75 -76 0
-75 78 -79 -649 0
-75 -78 -79 649 0
76 -77 594 662 663 0
76 77 -594 662 663 0
-76 -662 0
-76 -77 -594 0
-76 -663 0
-76 77 594 0
77 531 -664 0
77 -531 664 0
-77 -531 -664 0
-77 531 664 0
78 582 -758 0
78 -582 758 0
-78 -582 -758 0
-78 582 758 0
79 756 757 0
-79 -756 0
-79 -757 0
80 -81 632 730 731 0
80 81 -632 730 731 0
-80 -730 0
-80 -81 -632 0
-80 -731 0
-80 81 632 0
81 567 -732 0
81 -567 732 0
-81 -567 -732 0
-81 567 732 0
82 -83 -602 0
-82 602 0
-82 83 0
83 538 -676 0
83 -538 676 0
-83 -538 -676 0
-83 538 676 0
51 84 -85 92 0
84 -85 90 92 0
-84 85 0
-84 -92 0
-51 -84 -90 0
85 86 88 0
35 85 86 0
-85 -86 0
-35 -85 -88 0
86 -87 607 684 685 0
86 87 -607 684 685 0
-86 -684 0
-86 -87 -607 0
-86 -685 0
-86 87 607 0
87 543 -686 0
87 -543 686 0
-87 -543 -686 0
-87 543 686 0
88 -89 -636 0
-88 636 0
-88 89 0
89 570 -736 0
89 -570 736 0
-89 -570 -736 0
-89 570 736 0
90 -91 -619 0
-90 619 0
-90 91 0
91 554 -706 0
91 -554 706 0
-91 -554 -706 0
-91 554 706 0
92 -93 596 666 667 0
92 93 -596 666 667 0
-92 -666 0
-92 -93 -596 0
-92 -667 0
-92 93 596 0
93 533 -668 0
93 -533 668 0
-93 -533 -668 0
-93 533 668 0
94 -95 -200 -278 -319 0
-94 319 0
-94 95 0
-94 278 0
-94 200 0
95 -96 -166 -175 -182 0
-95 182 0
-95 96 0
-95 175 0
-95 166 0
96 -97 -113 -123 -145 0
-96 145 0
-96 97 0
-96 123 0
-96 113 0
97 -98 -101 -103 -107 0
-97 107 0
-97 98 0
-97 103 0
-97 101 0
98 99 717 0
98 100 679 0
98 99 100 0
98 679 717 0
-98 -99 -679 0
-98 -100 -717 0
99 540 -680 0
99 -540 680 0
-99 -540 -680 0
-99 540 680 0
100 560 -718 0
100 -560 718 0
-100 -560 -718 0
-100 560 718 0
24 101 727 0
101 102 703 0
24 101 102 0
101 703 727 0
-24 -101 -703 0
-101 -102 -727 0
102 565 -728 0
102 -565 728 0
-102 -565 -728 0
-102 565 728 0
103 -104 106 -624 0
22 103 -104 106 0
-103 104 0
-103 -106 0
-22 -103 624 0
104 105 -622 0
104 105 -710 0
104 105 -711 0
-104 -105 0
-104 622 710 711 0
105 630 726 727 0
-105 -630 0
-105 -727 0
-105 -726 0
106 628 722 723 0
-106 -628 0
-106 -723 0
-106 -722 0
107 -108 112 -687 0
107 -108 111 112 0
-107 108 0
-107 -112 0
-107 -111 687 0
108 -109 110 704 0
108 -109 110 703 0
-108 109 0
-108 -110 0
-108 -703 -704 0
109 754 755 0
109 753 756 0
109 754 756 0
109 753 755 0
-109 -753 -754 0
-109 -755 -756 0
110 -705 -706 0
-110 705 0
-110 706 0
111 544 688 0
-111 -544 0
-111 -688 0
112 585 763 764 0
-112 -585 0
-112 -764 0
-112 -763 0
113 -114 -116 -119 -121 0
-113 121 0
-113 114 0
-113 119 0
-113 116 0
48 114 774 0
114 115 713 0
48 114 115 0
114 713 774 0
-48 -114 -713 0
-114 -115 -774 0
115 530 -662 0
115 -530 662 0
-115 -530 -662 0
-115 530 662 0
116 117 118 0
116 751 771 0
116 118 771 0
116 117 751 0
-116 -117 -771 0
-116 -118 -751 0
117 589 -772 0
117 -589 772 0
-117 -589 -772 0
-117 589 772 0
118 578 -752 0
118 -578 752 0
-118 -578 -752 0
-118 578 752 0
91 119 729 0
119 120 705 0
91 119 120 0
119 705 729 0
-91 -119 -705 0
-119 -120 -729 0
120 566 -730 0
120 -566 730 0
-120 -566 -730 0
-120 566 730 0
62 121 769 0
121 122 753 0
62 121 122 0
121 753 769 0
-62 -121 -753 0
-121 -122 -769 0
122 588 -770 0
122 -588 770 0
-122 -588 -770 0
-122 588 770 0
123 -124 -129 -134 -140 0
-123 140 0
-123 124 0
-123 134 0
-123 129 0
124 -125 127 -606 0
124 -125 127 128 0
-124 125 0
-124 -127 0
-124 -128 606 0
125 126 711 0
125 126 710 712 0
-125 -126 0
-125 -711 -712 0
-125 -710 -711 0
126 -712 -713 0
126 -713 -714 0
-126 713 0
-126 712 714 0
127 607 684 685 0
-127 -607 0
-127 -685 0
-127 -684 0
128 682 683 0
-128 -682 0
-128 -683 0
129 130 131 -132 0
129 131 -132 -731 0
-129 132 0
-129 -131 0
-129 -130 731 0
130 567 732 0
-130 -567 0
-130 -732 0
131 640 742 743 0
-131 -640 0
-131 -743 0
-131 -742 0
132 133 723 0
132 133 722 724 0
-132 -133 0
-132 -723 -724 0
-132 -722 -723 0
133 -708 -709 0
133 -709 -710 0
-133 709 0
-133 708 710 0
134 -136 139 -679 0
134 135 -136 139 0
-134 136 0
-134 -139 0
-134 -135 679 0
135 540 680 0
-135 -540 0
-135 -680 0
136 137 -683 0
136 138 -691 0
136 -683 -691 0
136 137 138 0
-136 -138 683 0
-136 -137 691 0
137 546 692 0
-137 -546 0
-137 -692 0
138 542 684 0
-138 -542 0
-138 -684 0
139 556 709 710 0
-139 -556 0
-139 -710 0
-139 -709 0
140 -142 144 -769 0
140 141 -142 144 0
-140 142 0
-140 -144 0
-140 -141 769 0
141 588 770 0
-141 -588 0
-141 -770 0
142 143 -609 0
142 143 -688 0
142 143 -689 0
-142 -143 0
-142 609 688 689 0
143 566 729 730 0
-143 -566 0
-143 -730 0
-143 -729 0
144 560 717 718 0
-144 -560 0
-144 -718 0
-144 -717 0
145 -146 -151 -156 -161 0
-145 161 0
-145 146 0
-145 156 0
-145 151 0
146 -148 150 -610 0
146 147 -148 150 0
-146 148 0
-146 -150 0
-146 -147 610 0
147 690 691 0
-147 -690 0
-147 -691 0
148 149 -629 0
148 149 -724 0
148 149 -725 0
-148 -149 0
-148 629 724 725 0
149 621 708 709 0
-149 -621 0
-149 -709 0
-149 -708 0
150 620 706 707 0
-150 -620 0
-150 -707 0
-150 -706 0
151 -152 154 -631 0
151 -152 154 155 0
-151 152 0
-151 -154 0
-151 -155 631 0
152 153 -625 0
152 153 -716 0
152 153 -717 0
-152 -153 0
-152 625 716 717 0
153 638 738 739 0
-153 -638 0
-153 -739 0
-153 -738 0
154 641 744 745 0
-154 -641 0
-154 -745 0
-154 -744 0
155 728 729 0
-155 -728 0
-155 -729 0
156 -158 160 -727 0
156 157 -158 160 0
-156 158 0
-156 -160 0
-156 -157 727 0
157 565 728 0
-157 -565 0
-157 -728 0
158 159 -613 0
158 159 -696 0
158 159 -697 0
-158 -159 0
-158 613 696 697 0
159 639 740 741 0
-159 -639 0
-159 -741 0
-159 -740 0
160 623 712 713 0
-160 -623 0
-160 -713 0
-160 -712 0
161 162 163 -164 0
161 163 -164 734 0
-161 164 0
-161 -163 0
-161 -162 -734 0
162 -634 -635 0
-162 634 0
-162 635 0
163 593 773 774 0
-163 -593 0
-163 -774 0
-163 -773 0
164 165 -633 0
164 165 -732 0
164 165 -733 0
-164 -165 0
-164 633 732 733 0
165 637 736 737 0
-165 -637 0
-165 -737 0
-165 -736 0
166 -167 -169 -171 -173 0
-166 173 0
-166 167 0
-166 171 0
-166 169 0
50 167 695 0
167 168 691 0
50 167 168 0
167 691 695 0
-50 -167 -691 0
-167 -168 -695 0
168 548 -696 0
168 -548 696 0
-168 -548 -696 0
-168 548 696 0
38 169 681 0
169 170 677 0
38 169 170 0
169 677 681 0
-38 -169 -677 0
-169 -170 -681 0
170 541 -682 0
170 -541 682 0
-170 -541 -682 0
-170 541 682 0
20 171 172 0
171 665 699 0
171 172 699 0
20 171 665 0
-20 -171 -699 0
-171 -172 -665 0
172 532 -666 0
172 -532 666 0
-172 -532 -666 0
-172 532 666 0
72 173 174 0
173 689 733 0
173 174 733 0
72 173 689 0
-72 -173 -733 0
-173 -174 -689 0
174 545 -690 0
174 -545 690 0
-174 -545 -690 0
-174 545 690 0
175 -176 -177 -178 -179 0
-175 179 0
-175 176 0
-175 178 0
-175 177 0
56 61 176 0
176 671 701 0
61 176 701 0
56 176 671 0
-56 -176 -701 0
-61 -176 -671 0
26 77 177 0
177 663 711 0
77 177 711 0
26 177 663 0
-26 -177 -711 0
-77 -177 -663 0
21 178 735 0
89 178 715 0
21 89 178 0
178 715 735 0
-21 -178 -715 0
-89 -178 -735 0
179 180 181 0
179 687 719 0
179 181 719 0
179 180 687 0
-179 -180 -719 0
-179 -181 -687 0
180 561 -720 0
180 -561 720 0
-180 -561 -720 0
-180 561 720 0
181 544 -688 0
181 -544 688 0
-181 -544 -688 0
-181 544 688 0
182 -183 -185 -188 -192 0
-182 192 0
-182 183 0
-182 188 0
-182 185 0
71 183 184 0
183 747 759 0
183 184 759 0
71 183 747 0
-71 -183 -759 0
-183 -184 -747 0
184 576 -748 0
184 -576 748 0
-184 -576 -748 0
-184 576 748 0
185 186 743 0
185 187 683 0
185 186 187 0
185 683 743 0
-185 -186 -683 0
-185 -187 -743 0
186 542 -684 0
186 -542 684 0
-186 -542 -684 0
-186 542 684 0
187 574 -744 0
187 -574 744 0
-187 -574 -744 0
-187 574 744 0
188 189 -191 725 0
188 189 190 -191 0
-188 191 0
-188 -189 0
-188 -190 -725 0
189 -666 -667 0
189 -667 -668 0
189 533 667 668 0
-189 667 -668 0
-189 666 -667 668 0
-189 -533 667 0
190 564 -726 0
190 -564 726 0
-190 -564 -726 0
-190 564 726 0
31 191 763 0
67 191 737 0
31 67 191 0
191 737 763 0
-31 -191 -737 0
-67 -191 -763 0
192 -193 -194 -195 -198 0
-192 198 0
-192 193 0
-192 195 0
-192 194 0
41 87 193 0
193 685 693 0
87 193 693 0
41 193 685 0
-41 -193 -693 0
-87 -193 -685 0
42 194 731 0
81 194 707 0
42 81 194 0
194 707 731 0
-42 -194 -707 0
-81 -194 -731 0
195 196 765 0
195 197 745 0
195 196 197 0
195 745 765 0
-195 -196 -745 0
-195 -197 -765 0
196 575 -746 0
196 -575 746 0
-196 -575 -746 0
-196 575 746 0
197 586 -766 0
197 -586 766 0
-197 -586 -766 0
-197 586 766 0
34 198 723 0
198 199 669 0
34 198 199 0
198 669 723 0
-34 -198 -669 0
-198 -199 -723 0
199 563 -724 0
199 -563 724 0
-199 -563 -724 0
-199 563 724 0
200 -201 -222 -243 -257 0
-200 257 0
-200 201 0
-200 243 0
-200 222 0
201 -202 -207 -212 -217 0
-201 217 0
-201 202 0
-201 212 0
-201 207 0
202 203 204 -205 0
202 204 -205 -671 0
-202 205 0
-202 -204 0
-202 -203 671 0
203 535 672 0
-203 -535 0
-203 -672 0
204 -687 -688 0
204 -688 -689 0
-204 688 0
-204 687 689 0
205 206 686 0
205 206 685 687 0
-205 -206 0
-205 -686 -687 0
-205 -685 -686 0
206 -675 -676 0
206 -676 -677 0
-206 676 0
-206 675 677 0
207 -209 211 -669 0
207 208 -209 211 0
-207 209 0
-207 -211 0
-207 -208 669 0
208 534 670 0
-208 -534 0
-208 -670 0
209 210 702 0
209 210 701 703 0
-209 -210 0
-209 -702 -703 0
-209 -701 -702 0
210 599 672 673 0
-210 -599 0
-210 -673 0
-210 -672 0
211 -683 -684 0
211 -684 -685 0
-211 684 0
-211 683 685 0
212 -214 216 -749 0
212 213 -214 216 0
-212 214 0
-212 -216 0
-212 -213 749 0
213 577 750 0
-213 -577 0
-213 -750 0
214 215 -649 0
214 215 -756 0
214 215 -757 0
-214 -215 0
-214 649 756 757 0
215 532 665 666 0
-215 -532 0
-215 -666 0
-215 -665 0
216 655 768 769 0
-216 -655 0
-216 -769 0
-216 -768 0
217 -219 221 -713 0
217 218 -219 221 0
-217 219 0
-217 -221 0
-217 -218 713 0
218 558 714 0
-218 -558 0
-218 -714 0
219 220 690 0
219 220 689 691 0
-219 -220 0
-219 -690 -691 0
-219 -689 -690 0
220 559 715 716 0
-220 -559 0
-220 -716 0
-220 -715 0
221 555 707 708 0
-221 -555 0
-221 -708 0
-221 -707 0
222 -223 -228 -233 -238 0
-222 238 0
-222 223 0
-222 233 0
-222 228 0
223 224 225 -226 0
223 225 -226 -751 0
-223 226 0
-223 -225 0
-223 -224 751 0
224 578 752 0
-224 -578 0
-224 -752 0
225 531 663 664 0
-225 -531 0
-225 -664 0
-225 -663 0
226 227 752 0
226 227 751 753 0
-226 -227 0
-226 -752 -753 0
-226 -751 -752 0
227 -745 -746 0
227 -746 -747 0
-227 746 0
-227 745 747 0
228 -229 231 -739 0
228 -229 231 232 0
-228 229 0
-228 -231 0
-228 -232 739 0
229 230 731 0
229 230 730 732 0
-229 -230 0
-229 -731 -732 0
-229 -730 -731 0
230 614 698 699 0
-230 -614 0
-230 -699 0
-230 -698 0
231 562 721 722 0
-231 -562 0
-231 -722 0
-231 -721 0
232 572 740 0
-232 -572 0
-232 -740 0
233 -235 237 -705 0
233 234 -235 237 0
-233 235 0
-233 -237 0
-233 -234 705 0
234 554 706 0
-234 -554 0
-234 -706 0
235 236 -596 0
235 236 -666 0
235 236 -667 0
-235 -236 0
-235 596 666 667 0
236 557 711 712 0
-236 -557 0
-236 -712 0
-236 -711 0
237 605 680 681 0
-237 -605 0
-237 -681 0
-237 -680 0
238 -239 241 -595 0
238 -239 241 242 0
-238 239 0
-238 -241 0
-238 -242 595 0
239 240 721 0
239 240 720 722 0
-239 -240 0
-239 -721 -722 0
-239 -720 -721 0
240 -743 -744 0
240 -744 -745 0
-240 744 0
-240 743 745 0
241 -770 -771 0
241 -771 -772 0
-241 771 0
-241 770 772 0
242 664 665 0
-242 -664 0
-242 -665 0
243 -245 -254 734 0
243 244 -245 -254 0
-243 254 0
-243 245 0
-243 -244 -734 0
-36 244 569 0
-244 -569 0
36 -244 0
245 -246 -248 -250 -252 0
-245 252 0
-245 246 0
-245 250 0
-245 248 0
246 247 696 0
246 247 695 697 0
-246 -247 0
-246 -696 -697 0
-246 -695 -696 0
247 551 701 702 0
-247 -551 0
-247 -702 0
-247 -701 0
248 249 680 0
248 249 679 681 0
-248 -249 0
-248 -680 -681 0
-248 -679 -680 0
249 549 697 698 0
-249 -549 0
-249 -698 0
-249 -697 0
250 251 692 0
250 251 691 693 0
-250 -251 0
-250 -692 -693 0
-250 -691 -692 0
251 -681 -682 0
251 -682 -683 0
-251 682 0
-251 681 683 0
252 253 707 0
252 253 706 708 0
-252 -253 0
-252 -707 -708 0
-252 -706 -707 0
253 -697 -698 0
253 -698 -699 0
-253 698 0
-253 697 699 0
254 -255 694 0
254 -255 693 695 0
-254 255 0
-254 -694 -695 0
-254 -693 -694 0
255 256 700 0
255 256 699 701 0
-255 -256 0
-255 -700 -701 0
-255 -699 -700 0
256 -677 -678 0
256 -678 -679 0
-256 678 0
-256 677 679 0
257 -258 -263 -268 -273 0
-257 273 0
-257 258 0
-257 268 0
-257 263 0
258 -260 262 -632 0
258 259 -260 262 0
-258 260 0
-258 -262 0
-258 -259 632 0
259 730 731 0
-259 -730 0
-259 -731 0
260 261 736 0
260 261 735 737 0
-260 -261 0
-260 -736 -737 0
-260 -735 -736 0
261 650 758 759 0
-261 -650 0
-261 -759 0
-261 -758 0
262 -724 -725 0
262 -725 -726 0
-262 725 0
-262 724 726 0
263 264 265 -266 0
263 265 -266 -741 0
-263 266 0
-263 -265 0
-263 -264 741 0
264 573 742 0
-264 -573 0
-264 -742 0
265 643 748 749 0
-265 -643 0
-265 -749 0
-265 -748 0
266 267 727 0
266 267 726 728 0
-266 -267 0
-266 -727 -728 0
-266 -726 -727 0
267 616 702 703 0
-267 -616 0
-267 -703 0
-267 -702 0
268 -270 272 -699 0
268 269 -270 272 0
-268 270 0
-268 -272 0
-268 -269 699 0
269 550 700 0
-269 -550 0
-269 -700 0
270 271 -598 0
270 271 -670 0
270 271 -671 0
-270 -271 0
-270 598 670 671 0
271 611 692 693 0
-271 -611 0
-271 -693 0
-271 -692 0
272 586 765 766 0
-272 -586 0
-272 -766 0
-272 -765 0
273 -274 276 -612 0
273 -274 276 277 0
-273 274 0
-273 -276 0
-273 -277 612 0
274 275 -626 0
274 275 -718 0
274 275 -719 0
-274 -275 0
-274 626 718 719 0
275 644 750 751 0
-275 -644 0
-275 -751 0
-275 -750 0
276 608 686 687 0
-276 -608 0
-276 -687 0
-276 -686 0
277 694 695 0
-277 -694 0
-277 -695 0
278 -279 -284 -288 -297 0
-278 297 0
-278 279 0
-278 288 0
-278 284 0
279 -281 283 -594 0
279 280 -281 283 0
-279 281 0
-279 -283 0
-279 -280 594 0
280 662 663 0
-280 -662 0
-280 -663 0
281 282 763 0
281 282 762 764 0
-281 -282 0
-281 -763 -764 0
-281 -762 -763 0
282 603 676 677 0
-282 -603 0
-282 -677 0
-282 -676 0
283 -760 -761 0
283 -761 -762 0
-283 761 0
-283 760 762 0
284 285 286 -287 0
284 285 -287 -767 0
-284 287 0
-284 -285 0
-284 -286 767 0
285 584 761 762 0
-285 -584 0
-285 -762 0
-285 -761 0
286 587 768 0
-286 -587 0
-286 -768 0
287 759 -760 0
287 758 -759 760 0
287 -583 759 0
-287 -758 -759 0
-287 -759 -760 0
-287 583 759 760 0
288 -289 -291 -293 -295 0
-288 295 0
-288 289 0
-288 293 0
-288 291 0
289 290 663 0
289 290 662 664 0
-289 -290 0
-289 -663 -664 0
-289 -662 -663 0
290 -664 -665 0
290 -665 -666 0
-290 665 0
-290 664 666 0
291 292 719 0
291 292 718 720 0
-291 -292 0
-291 -719 -720 0
-291 -718 -719 0
292 -741 -742 0
292 -742 -743 0
-292 742 0
-292 741 743 0
293 294 -552 0
293 294 -703 0
293 294 -704 0
-293 -294 0
-293 552 703 704 0
294 604 678 679 0
-294 -604 0
-294 -679 0
-294 -678 0
295 296 671 0
295 296 670 672 0
-295 -296 0
-295 -671 -672 0
-295 -670 -671 0
296 -672 -673 0
296 -673 -674 0
-296 673 0
-296 672 674 0
297 -298 -304 -309 -314 0
-297 314 0
-297 298 0
-297 309 0
-297 304 0
298 -300 303 -745 0
298 299 -300 303 0
-298 300 0
-298 -303 0
-298 -299 745 0
299 575 746 0
-299 -575 0
-299 -746 0
300 301 -743 0
300 302 -693 0
300 -693 -743 0
300 301 302 0
-300 -302 743 0
-300 -301 693 0
301 547 694 0
-301 -547 0
-301 -694 0
302 574 744 0
-302 -574 0
-302 -744 0
303 568 733 734 0
-303 -568 0
-303 -734 0
-303 -733 0
304 -306 308 -753 0
304 305 -306 308 0
-304 306 0
-304 -308 0
-304 -305 753 0
305 579 754 0
-305 -579 0
-305 -754 0
306 307 -561 0
306 307 -719 0
306 307 -720 0
-306 -307 0
-306 561 719 720 0
307 530 662 774 0
-307 -530 0
-307 -774 0
-307 -662 0
308 589 771 772 0
-308 -589 0
-308 -772 0
-308 -771 0
309 310 311 -312 0
309 311 -312 -689 0
-309 312 0
-309 -311 0
-309 -310 689 0
310 545 690 0
-310 -545 0
-310 -690 0
311 541 681 682 0
-311 -541 0
-311 -682 0
-311 -681 0
312 313 -563 0
312 313 -723 0
312 313 -724 0
-312 -313 0
-312 563 723 724 0
313 536 673 674 0
-313 -536 0
-313 -674 0
-313 -673 0
314 -316 318 -747 0
314 315 -316 318 0
-314 316 0
-314 -318 0
-314 -315 747 0
315 576 748 0
-315 -576 0
-315 -748 0
316 317 -539 0
316 317 -677 0
316 317 -678 0
-316 -317 0
-316 539 677 678 0
317 564 725 726 0
-317 -564 0
-317 -726 0
-317 -725 0
318 582 757 758 0
-318 -582 0
-318 -758 0
-318 -757 0
319 -320 -341 -350 -355 0
-319 355 0
-319 320 0
-319 350 0
-319 341 0
320 -321 -325 -331 -336 0
-320 336 0
-320 321 0
-320 331 0
-320 325 0
321 -322 324 -645 0
63 321 -322 324 0
-321 322 0
-321 -324 0
-63 -321 645 0
322 323 -653 0
322 323 -764 0
322 323 -765 0
-322 -323 0
-322 653 764 765 0
323 654 766 767 0
-323 -654 0
-323 -767 0
-323 -766 0
324 -732 -733 0
324 -733 -734 0
-324 733 0
-324 732 734 0
325 326 327 -328 0
325 327 -328 -642 0
-325 328 0
-325 -327 0
-325 -326 642 0
326 746 747 0
-326 -746 0
-326 -747 0
327 -739 -740 0
327 -740 -741 0
-327 740 0
-327 739 741 0
328 329 330 0
328 704 754 0
328 330 754 0
328 329 704 0
-328 -329 -754 0
-328 -330 -704 0
329 -646 -647 0
-329 646 0
-329 647 0
330 -617 -618 0
-330 617 0
-330 618 0
331 -332 334 772 0
331 -332 334 335 0
-331 332 0
-331 -334 0
-331 -335 -772 0
332 333 -656 0
332 333 -770 0
332 333 -771 0
-332 -333 0
-332 656 770 771 0
333 627 720 721 0
-333 -627 0
-333 -721 0
-333 -720 0
334 651 760 761 0
-334 -651 0
-334 -761 0
-334 -760 0
335 -657 -658 0
-335 657 0
-335 658 0
336 -338 340 -735 0
336 337 -338 340 0
-336 338 0
-336 -340 0
-336 -337 735 0
337 570 736 0
-337 -570 0
-337 -736 0
338 339 715 0
338 339 714 716 0
-338 -339 0
-338 -715 -716 0
-338 -714 -715 0
339 -737 -738 0
339 -738 -739 0
-339 738 0
-339 737 739 0
340 -728 -729 0
340 -729 -730 0
-340 729 0
-340 728 730 0
341 -342 -344 -346 -348 0
-341 348 0
-341 342 0
-341 346 0
-341 344 0
342 343 750 0
342 343 749 751 0
-342 -343 0
-342 -750 -751 0
-342 -749 -750 0
343 543 685 686 0
-343 -543 0
-343 -686 0
-343 -685 0
344 345 767 0
344 345 766 768 0
-344 -345 0
-344 -767 -768 0
-344 -766 -767 0
345 -768 -769 0
345 -769 -770 0
-345 769 0
-345 768 770 0
346 347 717 0
346 347 716 718 0
-346 -347 0
-346 -717 -718 0
-346 -716 -717 0
347 597 668 669 0
-347 -597 0
-347 -669 0
-347 -668 0
348 349 765 0
348 349 764 766 0
-348 -349 0
-348 -765 -766 0
-348 -764 -765 0
349 -773 -774 0
349 -662 -774 0
-349 774 0
-349 662 773 0
350 351 352 -353 0
350 352 -353 -737 0
-350 353 0
-350 -352 0
-350 -351 737 0
351 571 738 0
-351 -571 0
-351 -738 0
352 548 695 696 0
-352 -548 0
-352 -696 0
-352 -695 0
353 354 -615 0
353 354 -700 0
353 354 -701 0
-353 -354 0
-353 615 700 701 0
354 652 762 763 0
-354 -652 0
-354 -763 0
-354 -762 0
355 356 -357 359 0
355 -357 359 674 0
-355 357 0
-355 -359 0
-355 -356 -674 0
356 -600 -601 0
-356 600 0
-356 601 0
357 358 757 0
357 358 756 758 0
-357 -358 0
-357 -757 -758 0
-357 -756 -757 0
358 -747 -748 0
358 -748 -749 0
-358 748 0
-358 747 749 0
359 -668 -669 0
359 -669 -670 0
-359 669 0
-359 668 670 0
360 -361 -376 -390 -407 0
-360 407 0
-360 361 0
-360 390 0
-360 376 0
361 -362 -366 -370 -373 0
-361 373 0
-361 362 0
-361 370 0
-361 366 0
362 363 364 0
-190 362 364 -629 0
190 362 364 629 0
-362 -364 0
-190 -362 -363 629 0
190 -362 -363 -629 0
363 724 725 0
-363 -724 0
-363 -725 0
364 -365 654 766 767 0
364 365 -654 766 767 0
-364 -766 0
-364 -365 -654 0
-364 -767 0
-364 365 654 0
365 587 -768 0
365 -587 768 0
-365 -587 -768 0
-365 587 768 0
366 367 368 0
366 368 -369 -639 0
366 368 369 639 0
-366 -368 0
-366 -367 -369 639 0
-366 -367 369 -639 0
367 740 741 0
-367 -740 0
-367 -741 0
-199 368 628 722 723 0
199 368 -628 722 723 0
-368 -722 0
-199 -368 -628 0
-368 -723 0
199 -368 628 0
369 573 -742 0
369 -573 742 0
-369 -573 -742 0
-369 573 742 0
370 371 372 0
-196 370 372 -641 0
196 370 372 641 0
-370 -372 0
-196 -370 -371 641 0
196 -370 -371 -641 0
371 744 745 0
-371 -744 0
-371 -745 0
-174 372 609 688 689 0
174 372 -609 688 689 0
-372 -688 0
-174 -372 -609 0
-372 -689 0
174 -372 609 0
373 374 375 0
122 373 375 655 0
-122 373 375 -655 0
-373 -375 0
-122 -373 -374 655 0
122 -373 -374 -655 0
374 768 769 0
-374 -768 0
-374 -769 0
-118 375 644 750 751 0
118 375 -644 750 751 0
-375 -750 0
-118 -375 -644 0
-375 -751 0
118 -375 644 0
376 -377 380 381 -382 0
-376 382 0
-376 -381 0
-376 377 0
-376 -380 0
377 378 379 0
197 377 379 653 0
-197 377 379 -653 0
-377 -379 0
-197 -377 -378 653 0
197 -377 -378 -653 0
378 764 765 0
-378 -764 0
-378 -765 0
-117 379 656 770 771 0
117 379 -656 770 771 0
-379 -770 0
-117 -379 -656 0
-379 -771 0
117 -379 656 0
-115 380 593 773 774 0
115 380 -593 773 774 0
-380 -773 0
-115 -380 -593 0
-380 -774 0
115 -380 593 0
-180 381 626 718 719 0
180 381 -626 718 719 0
-381 -718 0
-180 -381 -626 0
-381 -719 0
180 -381 626 0
382 -383 -386 659 0
382 384 -386 -659 0
382 383 -384 -386 0
-382 386 0
-382 383 384 659 0
-382 -383 -384 -659 0
383 592 -660 0
-383 -592 0
-383 660 0
384 -385 -590 0
384 385 590 0
-384 -385 590 0
-384 385 -590 0
385 657 -658 0
385 -657 658 0
-385 -657 -658 0
-385 657 658 0
386 387 388 0
181 386 388 608 0
-181 386 388 -608 0
-386 -388 0
-181 -386 -387 608 0
181 -386 -387 -608 0
387 686 687 0
-387 -686 0
-387 -687 0
388 -389 638 738 739 0
388 389 -638 738 739 0
-388 -738 0
-388 -389 -638 0
-388 -739 0
-388 389 638 0
389 572 -740 0
389 -572 740 0
-389 -572 -740 0
-389 572 740 0
390 -391 -394 -396 -402 0
-390 402 0
-390 391 0
-390 396 0
-390 394 0
391 392 393 0
99 391 393 604 0
-99 391 393 -604 0
-391 -393 0
-99 -391 -392 604 0
99 -391 -392 -604 0
392 678 679 0
-392 -678 0
-392 -679 0
-120 393 631 728 729 0
120 393 -631 728 729 0
-393 -728 0
-120 -393 -631 0
-393 -729 0
120 -393 631 0
277 394 395 0
168 394 395 612 0
-168 394 395 -612 0
-394 -395 0
-168 -277 -394 612 0
168 -277 -394 -612 0
-102 395 630 726 727 0
102 395 -630 726 727 0
-395 -726 0
-102 -395 -630 0
-395 -727 0
102 -395 630 0
396 -397 -398 -399 -401 0
-396 401 0
-396 397 0
-396 399 0
-396 398 0
369 389 397 0
397 739 741 0
389 397 741 0
369 397 739 0
-369 -397 -741 0
-389 -397 -739 0
66 93 398 0
398 667 761 0
93 398 761 0
66 398 667 0
-66 -398 -761 0
-93 -398 -667 0
365 399 400 0
399 721 767 0
399 400 767 0
365 399 721 0
-365 -399 -767 0
-399 -400 -721 0
400 562 -722 0
400 -562 722 0
-400 -562 -722 0
-400 562 722 0
57 401 757 0
78 401 749 0
57 78 401 0
401 749 757 0
-57 -401 -749 0
-78 -401 -757 0
402 403 -406 709 0
402 403 405 -406 0
-402 406 0
-402 -403 0
-402 -405 -709 0
403 -404 613 696 697 0
403 404 -613 696 697 0
-403 -696 0
-403 -404 -613 0
-403 -697 0
-403 404 613 0
404 549 -698 0
404 -549 698 0
-404 -549 -698 0
-404 549 698 0
405 556 -710 0
405 -556 710 0
-405 -556 -710 0
-405 556 710 0
30 406 697 0
404 406 673 0
30 404 406 0
406 673 697 0
-30 -406 -673 0
-404 -406 -697 0
407 -408 -410 -412 -415 0
-407 415 0
-407 408 0
-407 412 0
-407 410 0
326 408 409 0
184 408 409 642 0
-184 408 409 -642 0
-408 -409 0
-184 -326 -408 642 0
184 -326 -408 -642 0
-400 409 627 720 721 0
400 409 -627 720 721 0
-409 -720 0
-400 -409 -627 0
-409 -721 0
400 -409 627 0
242 410 411 0
172 410 411 595 0
-172 410 411 -595 0
-410 -411 0
-172 -242 -410 595 0
172 -242 -410 -595 0
-187 411 640 742 743 0
187 411 -640 742 743 0
-411 -742 0
-187 -411 -640 0
-411 -743 0
187 -411 640 0
412 413 414 0
170 412 414 605 0
-170 412 414 -605 0
-412 -414 0
-170 -412 -413 605 0
170 -412 -413 -605 0
413 680 681 0
-413 -680 0
-413 -681 0
-405 414 621 708 709 0
405 414 -621 708 709 0
-414 -708 0
-405 -414 -621 0
-414 -709 0
405 -414 621 0
415 416 417 0
100 415 417 625 0
-100 415 417 -625 0
-415 -417 0
-100 -415 -416 625 0
100 -415 -416 -625 0
416 716 717 0
-416 -716 0
-416 -717 0
-186 417 606 682 683 0
186 417 -606 682 683 0
-417 -682 0
-186 -417 -606 0
-417 -683 0
186 -417 606 0
418 -419 -424 -430 -434 0
-418 434 0
-418 419 0
-418 430 0
-418 424 0
419 420 -421 0
-91 419 -421 -619 0
91 419 -421 619 0
-419 421 0
-91 -419 -420 619 0
91 -419 -420 -619 0
51 420 705 0
-420 -705 0
-51 -420 0
421 422 675 0
11 83 421 422 0
-421 -422 0
-83 -421 -675 0
-11 -421 -675 0
-89 422 -423 636 0
89 422 -423 -636 0
-422 423 0
89 -422 636 0
-89 -422 -636 0
35 423 735 0
-423 -735 0
-35 -423 0
424 425 426 428 429 0
-424 -429 0
-424 -428 0
-424 -425 0
-424 -426 0
425 -537 600 674 0
425 -537 601 674 0
425 600 601 674 0
-425 537 -600 0
-425 -600 -601 0
-425 -674 0
-425 537 -601 0
-383 -384 426 -427 0
383 -384 426 427 -659 0
383 -426 -427 0
-383 -426 427 0
384 -426 0
383 -426 659 0
427 -591 -659 0
427 591 659 0
-427 591 -659 0
-427 -591 659 0
383 384 -427 428 0
-383 384 427 428 659 0
383 427 -428 0
-383 -427 -428 0
-384 -428 0
427 -428 -659 0
429 -590 657 772 0
429 -590 658 772 0
429 657 658 772 0
-429 590 -657 0
-429 -657 -658 0
-429 -772 0
-429 590 -658 0
430 -431 433 -636 0
423 430 -431 433 0
-430 431 0
-430 -433 0
-423 -430 636 0
431 432 755 0
6 8 431 432 0
-431 -432 0
-8 -431 -755 0
-6 -431 -755 0
432 -569 634 734 0
432 -569 635 734 0
432 634 635 734 0
-432 569 -634 0
-432 -634 -635 0
-432 -734 0
-432 569 -635 0
433 -553 617 704 0
433 -553 618 704 0
433 617 618 704 0
-433 553 -617 0
-433 -617 -618 0
-433 -704 0
-433 553 -618 0
434 -435 -488 -503 -516 0
-434 516 0
-434 435 0
-434 503 0
-434 488 0
435 -436 -449 -462 -475 0
-435 475 0
-435 436 0
-435 462 0
-435 449 0
436 -437 -440 -443 -446 0
-436 446 0
-436 437 0
-436 443 0
-436 440 0
437 438 439 0
437 696 702 0
437 439 702 0
437 438 696 0
-437 -438 -702 0
-437 -439 -696 0
-24 438 -616 0
-438 616 0
24 -438 0
-404 439 -613 0
-439 613 0
404 -439 0
440 441 738 0
440 442 670 0
440 441 442 0
440 670 738 0
-440 -441 -670 0
-440 -442 -738 0
-61 441 -598 0
-441 598 0
61 -441 0
-389 442 -638 0
-442 638 0
389 -442 0
443 444 676 0
443 445 668 0
443 444 445 0
443 668 676 0
-443 -444 -668 0
-443 -445 -676 0
-34 444 -597 0
-444 597 0
34 -444 0
-38 445 -603 0
-445 603 0
38 -445 0
446 447 448 0
446 664 700 0
446 448 700 0
446 447 664 0
-446 -447 -700 0
-446 -448 -664 0
-56 447 -615 0
-447 615 0
56 -447 0
-172 448 -595 0
-448 595 0
172 -448 0
449 -450 -453 -456 -459 0
-449 459 0
-449 450 0
-449 456 0
-449 453 0
450 451 728 0
450 452 724 0
450 451 452 0
450 724 728 0
-450 -451 -724 0
-450 -452 -728 0
-190 451 -629 0
-451 629 0
190 -451 0
-120 452 -631 0
-452 631 0
120 -452 0
453 454 455 0
453 758 760 0
453 455 760 0
453 454 758 0
-453 -454 -760 0
-453 -455 -758 0
-66 454 -651 0
-454 651 0
66 -454 0
-71 455 -650 0
-455 650 0
71 -455 0
456 457 458 0
456 680 694 0
456 458 694 0
456 457 680 0
-456 -457 -694 0
-456 -458 -680 0
-168 457 -612 0
-457 612 0
168 -457 0
-170 458 -605 0
-458 605 0
170 -458 0
459 460 712 0
459 461 698 0
459 460 461 0
459 698 712 0
-459 -460 -698 0
-459 -461 -712 0
-20 460 -614 0
-460 614 0
20 -460 0
-48 461 -623 0
-461 623 0
48 -461 0
462 -463 -466 -469 -472 0
-462 472 0
-462 463 0
-462 469 0
-462 466 0
463 464 465 0
463 726 756 0
463 465 756 0
463 464 726 0
-463 -464 -756 0
-463 -465 -726 0
-78 464 -649 0
-464 649 0
78 -464 0
-102 465 -630 0
-465 630 0
102 -465 0
466 467 720 0
466 468 672 0
466 467 468 0
466 672 720 0
-466 -467 -672 0
-466 -468 -720 0
-30 467 -599 0
-467 599 0
30 -467 0
-400 468 -627 0
-468 627 0
400 -468 0
469 470 471 0
469 704 710 0
469 471 710 0
469 470 704 0
-469 -470 -710 0
-469 -471 -704 0
-26 470 -622 0
-470 622 0
26 -470 0
-52 471 553 0
-471 -553 0
52 -471 0
472 473 474 0
472 678 690 0
472 474 690 0
472 473 678 0
-472 -473 -690 0
-472 -474 -678 0
-50 473 -610 0
-473 610 0
50 -473 0
-99 474 -604 0
-474 604 0
99 -474 0
475 -476 -479 -482 -485 0
-475 485 0
-475 476 0
-475 482 0
-475 479 0
476 477 746 0
476 478 686 0
476 477 478 0
476 686 746 0
-476 -477 -686 0
-476 -478 -746 0
-181 477 -608 0
-477 608 0
181 -477 0
-184 478 -642 0
-478 642 0
184 -478 0
479 480 481 0
479 684 730 0
479 481 730 0
479 480 684 0
-479 -480 -730 0
-479 -481 -684 0
-81 480 -632 0
-480 632 0
81 -480 0
-87 481 -607 0
-481 607 0
87 -481 0
482 483 484 0
482 706 714 0
482 484 714 0
482 483 706 0
-482 -483 -714 0
-482 -484 -706 0
-21 483 -624 0
-483 624 0
21 -483 0
-42 484 -620 0
-484 620 0
42 -484 0
485 486 666 0
485 487 662 0
485 486 487 0
485 662 666 0
-485 -486 -662 0
-485 -487 -666 0
-77 486 -594 0
-486 594 0
77 -486 0
-93 487 -596 0
-487 596 0
93 -487 0
488 -489 502 -619 0
420 488 -489 502 0
-488 489 0
-488 -502 0
-420 -488 619 0
489 -490 -493 -496 -499 0
-489 499 0
-489 490 0
-489 496 0
-489 493 0
490 491 772 0
490 492 732 0
490 491 492 0
490 732 772 0
-490 -491 -732 0
-490 -492 -772 0
-72 491 -633 0
-491 633 0
72 -491 0
-385 492 590 0
-492 -590 0
385 -492 0
493 495 736 0
493 494 495 0
-493 -495 0
-493 -494 -736 0
-31 494 -637 0
-494 637 0
31 -494 0
495 -580 646 754 0
495 -580 647 754 0
495 646 647 754 0
-495 580 -646 0
-495 -646 -647 0
-495 -754 0
-495 580 -647 0
496 497 498 0
496 682 688 0
496 498 688 0
496 497 682 0
-496 -497 -688 0
-496 -498 -682 0
-174 497 -609 0
-497 609 0
174 -497 0
-186 498 -606 0
-498 606 0
186 -498 0
499 500 718 0
499 501 674 0
499 500 501 0
499 674 718 0
-499 -500 -674 0
-499 -501 -718 0
-12 500 537 0
-500 -537 0
12 -500 0
-180 501 -626 0
-501 626 0
180 -501 0
11 -83 502 602 675 0
11 83 502 -602 675 0
-502 -675 0
-83 -502 -602 0
-11 -502 0
83 -502 602 0
503 -504 -507 -510 -513 0
-503 513 0
-503 504 0
-503 510 0
-503 507 0
504 505 506 0
504 742 744 0
504 506 744 0
504 505 742 0
-504 -505 -744 0
-504 -506 -742 0
-196 505 -641 0
-505 641 0
196 -505 0
-187 506 -640 0
-506 640 0
187 -506 0
507 508 773 0
507 509 766 0
507 508 509 0
507 766 773 0
-507 -508 -766 0
-507 -509 -773 0
-365 508 -654 0
-508 654 0
365 -508 0
-115 509 -593 0
-509 593 0
115 -509 0
510 511 762 0
510 512 692 0
510 511 512 0
510 692 762 0
-510 -511 -692 0
-510 -512 -762 0
-41 511 -611 0
-511 611 0
41 -511 0
-67 512 -652 0
-512 652 0
67 -512 0
513 514 770 0
513 515 740 0
513 514 515 0
513 740 770 0
-513 -514 -740 0
-513 -515 -770 0
-369 514 -639 0
-514 639 0
369 -514 0
-117 515 -656 0
-515 656 0
117 -515 0
516 -517 -520 -523 -526 0
-516 526 0
-516 517 0
-516 523 0
-516 520 0
517 518 519 0
517 716 748 0
517 519 748 0
517 518 716 0
-517 -518 -748 0
-517 -519 -716 0
-57 518 -643 0
-518 643 0
57 -518 0
-100 519 -625 0
-519 625 0
100 -519 0
520 521 522 0
520 708 752 0
520 522 752 0
520 521 708 0
-520 -521 -752 0
-520 -522 -708 0
-62 521 -645 0
-521 645 0
62 -521 0
-405 522 -621 0
-522 621 0
405 -522 0
523 524 525 0
523 764 768 0
523 525 768 0
523 524 764 0
-523 -524 -768 0
-523 -525 -764 0
-122 524 -655 0
-524 655 0
122 -524 0
-197 525 -653 0
-525 653 0
197 -525 0
526 527 750 0
526 528 722 0
526 527 528 0
526 722 750 0
-526 -527 -722 0
-526 -528 -750 0
-199 527 -628 0
-527 628 0
199 -527 0
-118 528 -644 0
-528 644 0
118 -528 0
1 -2 0
-1 2 0
775 0

